RAW/CMTH/fspd/CMT4H.vrp_seed-0.out
831.3914137	0.798	40.083
