RAW/CMTH/fspd/CMT4H.vrp_seed-0.sol
Route #1: 126 16 127 53 129 29 128 84 35 85 36 115 121 116 70 28 31 82 140 113 26 8 60 81
Route #2: 63 37 137 44 92 42 93 65 107 52 15 45 91 72 33 125 124 122 123 71 90 108 103
Route #3: 5 76 49 10 54 106 73 117 89 39 75 105 30 104 34 74 79 21 118 130 50 9 62 38
Route #4: 78 11 100 2 83 131 20 59 3 101 22 80 120 1 51 119 32 77
Route #5: 68 133 25 95 67 13 136 40 88 64 19 94 41 66 111 134 55 18 110 139
Route #6: 47 56 146 4 149 109 143 135 141 150 148 87 142 147 17 145 144 12
Route #7: 27 138 48 112 23 69 7 61 114 99 43 86 97 24 96 58 14 132 98 57 6 102 46
Cost 831.391414